牛客/2019牛客暑期多校训练营/数据/9_D_Knapsack Cryptosystem/18.in
36 512844015850565
40664630085713 81329260171426 12789545657943 25579091315886 50010186075830 44270203296120 6063149864872 81975594341750 11122974958508 11897069155663 13445257549973 49944382729867 29197729619073 67682745918469 90696781093966 86819823287454 86696160671045 14735332952161 25552055566440 8861911727220 3430930797035 12936988085224 35679510224667 5579436910604 94044907645095 66840673676937 5048302448583 69135949515558 18375114600644 70701392060288 2361961600628 52161700117614 60686387678696 58119674108398 33312084556649 30745075817625
